(set-option :produce-models true)
(set-logic QF_UF)
(declare-fun p54() Bool)
(declare-fun p36() Bool)
(declare-fun p21() Bool)
(declare-fun p2() Bool)
(declare-fun p7() Bool)
(declare-fun p32() Bool)
(declare-fun p66() Bool)
(declare-fun p19() Bool)
(declare-fun p52() Bool)
(declare-fun p33() Bool)
(declare-fun p1() Bool)
(declare-fun p57() Bool)
(declare-fun p50() Bool)
(declare-fun p43() Bool)
(declare-fun p30() Bool)
(declare-fun p10() Bool)
(declare-fun p25() Bool)
(declare-fun p14() Bool)
(declare-fun p28() Bool)
(declare-fun p42() Bool)
(declare-fun p31() Bool)
(declare-fun p15() Bool)
(declare-fun p0() Bool)
(declare-fun p58() Bool)
(declare-fun p20() Bool)
(declare-fun p63() Bool)
(declare-fun p5() Bool)
(declare-fun p40() Bool)
(declare-fun p53() Bool)
(declare-fun p47() Bool)
(declare-fun p39() Bool)
(declare-fun p11() Bool)
(declare-fun p37() Bool)
(declare-fun p45() Bool)
(declare-fun p12() Bool)
(declare-fun p60() Bool)
(declare-fun p59() Bool)
(declare-fun p55() Bool)
(declare-fun p51() Bool)
(declare-fun p56() Bool)
(declare-fun p6() Bool)
(declare-fun p29() Bool)
(declare-fun p22() Bool)
(declare-fun p8() Bool)
(declare-fun p61() Bool)
(declare-fun p23() Bool)
(declare-fun p41() Bool)
(declare-fun p27() Bool)
(declare-fun p67() Bool)
(declare-fun p48() Bool)
(declare-fun p64() Bool)
(declare-fun p65() Bool)
(declare-fun p16() Bool)
(declare-fun p38() Bool)
(declare-fun p35() Bool)
(declare-fun p9() Bool)
(declare-fun p49() Bool)
(declare-fun p46() Bool)
(declare-fun p62() Bool)
(declare-fun p34() Bool)
(declare-fun p17() Bool)
(declare-fun p26() Bool)
(declare-fun p44() Bool)
(declare-fun p69() Bool)
(declare-fun p18() Bool)
(declare-fun p3() Bool)
(declare-fun p13() Bool)
(declare-fun p24() Bool)
(declare-fun p68() Bool)
(declare-fun p4() Bool)
(assert
(and (or (not p54) (not p36) (not p21)) (or p2 (not p7) p32) (or (not p66) p19 (not p52)) (or p2 p33 (not p1)) (or p57 p50 (not p54)) (or (not p43) p30 p10) (or p25 p66 p14) (or (not p28) (not p42) p42) (or p31 p15 p2) (or p14 p42 (not p0)) (or p58 p20 (not p57)) (or (not p63) p5 (not p19)) (or p40 (not p40) p53) (or p47 (not p19) p40) (or (not p39) (not p20) (not p11)) (or (not p37) (not p58) (not p45)) (or p12 (not p60) p10) (or p15 (not p59) p42) (or p66 (not p66) (not p58)) (or p55 p30 p51) (or (not p56) (not p20) p1) (or p6 (not p29) (not p22)) (or p8 p36 p61) (or (not p28) p23 (not p41)) (or (not p20) p52 (not p27)) (or p42 p67 p42) (or (not p60) (not p48) p64) (or (not p65) (not p57) (not p25)) (or p1 (not p67) p37) (or (not p22) p67 p52) (or (not p1) p43 p0) (or p25 p5 (not p10)) (or p16 (not p15) (not p28)) (or p38 (not p7) p59) (or (not p53) p60 (not p25)) (or (not p56) p35 p0) (or (not p25) (not p9) (not p40)) (or p48 p41 (not p57)) (or p6 p49 (not p54)) (or p41 (not p54) (not p46)) (or p62 (not p39) p48) (or p45 (not p34) (not p37)) (or (not p19) (not p1) p17) (or p11 (not p38) p27) (or (not p21) (not p46) p61) (or p50 (not p39) (not p64)) (or (not p57) p26 (not p30)) (or p44 (not p50) p55) (or p2 p67 p40) (or (not p51) p53 p30) (or (not p26) p11 p2) (or (not p67) p35 p16) (or (not p27) (not p17) (not p69)) (or p44 (not p69) (not p54)) (or (not p49) p12 p18) (or (not p14) (not p25) p58) (or p61 p25 p37) (or p36 (not p22) p16) (or (not p30) p20 p10) (or (not p47) p17 (not p36)) (or (not p6) (not p21) p43) (or p7 (not p47) (not p35)) (or p66 (not p15) (not p48)) (or (not p37) (not p49) (not p0)) (or (not p56) p21 (not p35)) (or (not p34) p67 p62) (or (not p30) (not p26) (not p66)) (or p38 p26 p14) (or p43 p44 (not p29)) (or (not p43) p51 (not p49)) (or p28 p2 p60) (or (not p12) p17 p30) (or p62 p42 p67) (or (not p57) p6 p56) (or (not p14) (not p7) (not p65)) (or p17 p11 (not p5)) (or p46 (not p39) p14) (or p53 p21 p3) (or (not p67) p32 (not p54)) (or p52 (not p31) p63) (or (not p23) p57 (not p62)) (or p43 (not p37) p47) (or p65 (not p46) (not p23)) (or p58 (not p60) (not p25)) (or p19 (not p28) p0) (or (not p26) (not p26) (not p5)) (or (not p10) (not p17) p33) (or p53 (not p46) (not p56)) (or p7 (not p26) p23) (or (not p39) (not p39) p55) (or p28 p13 p6) (or (not p65) (not p34) p11) (or p69 (not p10) (not p1)) (or (not p35) (not p67) (not p53)) (or p24 p51 (not p26)) (or p16 (not p33) (not p65)) (or p34 (not p8) p13) (or p64 (not p25) (not p19)) (or (not p25) (not p10) (not p29)) (or p52 (not p64) (not p48)) (or p15 (not p43) p35) (or p33 p60 (not p59)) (or p3 p57 p21) (or (not p45) (not p48) p37) (or (not p67) p57 (not p10)) (or (not p6) (not p3) p10) (or (not p44) p27 p58) (or (not p59) p53 (not p44)) (or p68 p41 (not p11)) (or (not p41) (not p59) p23) (or p64 (not p64) (not p58)) (or p11 (not p64) (not p9)) (or p16 p38 (not p20)) (or (not p44) p30 p52) (or p22 (not p28) (not p14)) (or (not p52) p63 p40) (or p2 (not p24) p44) (or (not p6) (not p16) p13) (or (not p8) (not p6) p3) (or p8 p29 (not p69)) (or (not p36) p66 (not p45)) (or p1 p58 p56) (or (not p11) (not p6) (not p14)) (or (not p38) (not p48) (not p15)) (or (not p48) p34 (not p17)) (or p24 (not p47) (not p14)) (or p61 p17 (not p60)) (or (not p65) (not p24) p45) (or (not p29) p47 (not p66)) (or p58 (not p32) (not p7)) (or p49 (not p55) p9) (or p40 (not p51) (not p32)) (or p62 p56 p59) (or p15 p32 p47) (or (not p36) (not p31) (not p55)) (or p57 (not p16) (not p59)) (or p8 (not p6) p62) (or p68 (not p20) p28) (or (not p21) p24 (not p15)) (or p55 (not p34) p29) (or (not p51) (not p42) (not p51)) (or (not p14) (not p2) (not p28)) (or p28 p68 (not p18)) (or (not p20) (not p23) p69) (or p23 p61 p65) (or p14 p48 p16) (or p45 (not p12) (not p31)) (or (not p13) (not p46) p43) (or p57 p50 (not p32)) (or (not p15) p52 (not p32)) (or (not p64) p7 p43) (or (not p19) p42 p43) (or p2 (not p23) p1) (or (not p24) p23 (not p29)) (or p45 p18 p21) (or (not p0) p43 (not p38)) (or p56 p47 (not p50)) (or (not p19) (not p3) (not p0)) (or p37 p65 (not p40)) (or p22 (not p69) p42) (or (not p38) (not p9) p14) (or p55 (not p69) (not p33)) (or p36 p27 (not p15)) (or p2 (not p36) (not p33)) (or (not p14) p43 (not p20)) (or p58 (not p41) p61) (or p62 (not p0) p8) (or (not p4) (not p50) (not p61)) (or (not p46) p17 p61) (or p53 p5 (not p30)) (or (not p25) (not p38) p13) (or (not p33) (not p6) (not p30)) (or (not p63) (not p42) p31) (or p19 p27 p31) (or p0 (not p32) p58) (or (not p42) p32 p19) (or p11 p55 (not p26)) (or (not p54) p22 p18) (or (not p42) (not p59) (not p62)) (or p4 (not p44) (not p36)) (or p12 (not p20) (not p2)) (or (not p25) p48 p14) (or (not p28) (not p38) p64) (or (not p27) (not p62) (not p67)) (or (not p8) (not p54) (not p19)) (or p61 (not p29) (not p64)) (or (not p46) p10 p8) (or p41 p9 p1) (or (not p59) p29 (not p66)) (or p25 (not p26) p23) (or p59 p43 p60) (or p25 p55 p29) (or p24 (not p18) p48) (or p27 p50 (not p60)) (or p44 p19 (not p43)) (or (not p18) (not p66) p30) (or p25 (not p27) p2) (or (not p47) (not p28) (not p33)) (or (not p69) (not p46) (not p54)) (or (not p25) (not p57) (not p22)) (or p36 p5 p55) (or (not p40) (not p24) p61) (or (not p40) p48 p65) (or p24 (not p41) p56) (or p26 (not p24) (not p54)) (or p26 (not p58) p48) (or (not p37) (not p58) (not p22)) (or p53 (not p28) p40) (or (not p56) (not p31) (not p9)) (or (not p22) (not p45) p41) (or p53 (not p56) (not p5)) (or (not p14) (not p49) (not p19)) (or (not p67) (not p56) p57) (or p37 p58 (not p61)) (or p6 p47 (not p60)) (or p52 p58 (not p32)) (or p2 (not p48) p5) (or p40 p63 p28) (or (not p26) (not p45) (not p18)) (or p24 p14 p52) (or p16 (not p45) p27) (or p65 (not p28) p0) (or (not p57) (not p49) p46) (or (not p4) p64 (not p34)) (or (not p52) (not p23) (not p44)) (or p69 (not p21) p18) (or p58 (not p58) (not p50)) (or p45 p29 (not p17)) (or (not p19) (not p51) p55) (or (not p63) (not p40) (not p25)) (or (not p66) p43 (not p19)) (or p63 (not p60) (not p30)) (or (not p21) p27 (not p36)) (or p45 (not p54) p3) (or (not p2) p39 (not p35)) (or p68 (not p55) (not p14)) (or p64 p64 (not p16)) (or p40 p59 p58) (or p14 (not p45) (not p40)) (or (not p17) (not p51) p41) (or (not p65) (not p62) (not p43)) (or (not p1) (not p67) p66) (or (not p65) (not p19) p56) (or (not p9) (not p6) (not p40)) (or p64 p8 (not p32)) (or (not p17) p3 (not p41)) (or (not p41) p0 (not p52)) (or p4 p35 p66) (or p29 p41 p39) (or (not p8) (not p35) (not p34)) (or p21 p13 (not p22)) (or (not p62) (not p40) (not p24)) (or (not p15) p41 (not p35)) (or (not p8) p47 p35) (or (not p35) (not p36) p47) (or (not p1) (not p63) (not p58)) (or p43 p21 p17) (or p62 (not p3) (not p52)) (or p30 p59 p51) (or (not p15) (not p16) p69) (or (not p32) p39 (not p19)) (or (not p65) p25 (not p15)) (or p4 p59 (not p25)) (or p48 p9 (not p31)) (or p55 p46 p4) (or (not p1) (not p42) (not p45)) (or p55 p46 p55) (or (not p35) p50 (not p36)) (or p56 p68 p34) (or (not p19) (not p11) p55) (or p55 p29 p37) (or p11 p57 (not p26)) (or (not p34) (not p58) p11) (or (not p25) p56 (not p10)) (or p65 p41 (not p27)) (or (not p7) p51 p0) (or (not p55) (not p67) p45) (or (not p0) p65 p50) (or (not p18) p5 p39) (or p23 p68 (not p47)) (or (not p0) p44 (not p8)) (or (not p43) (not p20) p67) (or p40 (not p27) (not p46)) (or (not p34) p49 p29) (or (not p63) p59 p39) (or p28 (not p48) p3) (or p63 (not p20) (not p35)) (or p6 p32 p43) (or p9 p10 (not p48)) (or (not p16) p37 (not p54)) (or p30 p45 (not p68)) (or (not p32) (not p42) (not p0)) (or (not p64) (not p23) (not p11)) (or p10 p43 (not p65)) (or (not p14) (not p29) (not p54)) (or p17 (not p25) p67) (or (not p11) (not p31) (not p60)))
)
(check-sat)
(get-model)
